8049
8074
8136
8063
7984
7885
8069
8068
7994
8088
8095
7995
8030
8056
7985
8141
7977
8035
8028
8073
7931
8038
8019
8039
7951
8086
8080
8018
7991
7988
8136
8143
7940
8079
8111
8134
8000
7969
8062
8111
8143
8168
8085
8047
8174
8112
8074
8185
8054
8094
8080
8014
8016
8078
8077
7950
7953
7997
8049
8068
8074
8015
7968
8094
7939
8043
8069
8148
8046
8045
7966
7958
8091
8089
8142
8130
8132
8030
8091
8042
8071
7995
8132
8063
8010
7963
7955
8112
7995
8064
8225
8020
8077
8123
8087
8140
8016
7960
8041
8055
